
Gurobi 8.1.1 (linux64) logging started Thu Oct 10 11:02:35 2019

Academic license - for non-commercial use only

Gurobi Optimizer version 8.1.1 build v8.1.1rc0 (linux64)
Copyright (c) 2019, Gurobi Optimization, LLC

Read MPS format model from file 50v-10.mps
Reading time = 0.00 seconds
50v-10: 233 rows, 2013 columns, 2745 nonzeros
Optimize a model with 233 rows, 2013 columns and 2745 nonzeros
Variable types: 366 continuous, 1647 integer (0 binary)
Coefficient statistics:
  Matrix range     [1e+00, 2e+02]
  Objective range  [2e+00, 7e+02]
  Bounds range     [1e+00, 2e+02]
  RHS range        [1e+01, 1e+03]
Found heuristic solution: objective 24351.509936
Presolve time: 0.01s
Presolved: 233 rows, 2013 columns, 2745 nonzeros
Variable types: 366 continuous, 1647 integer (1464 binary)

Root relaxation: objective 2.879066e+03, 420 iterations, 0.01 seconds

    Nodes    |    Current Node    |     Objective Bounds      |     Work
 Expl Unexpl |  Obj  Depth IntInf | Incumbent    BestBd   Gap | It/Node Time

     0     0 2879.06569    0   29 24351.5099 2879.06569  88.2%     -    0s
H    0     0                    5473.0600023 2879.06569  47.4%     -    0s
H    0     0                    3869.3399856 2879.06569  25.6%     -    0s
H    0     0                    3583.6299901 2879.06569  19.7%     -    0s
     0     0 3059.82066    0   43 3583.62999 3059.82066  14.6%     -    0s
     0     0 3065.14956    0   47 3583.62999 3065.14956  14.5%     -    0s
     0     0 3112.70612    0   55 3583.62999 3112.70612  13.1%     -    0s
     0     0 3120.75752    0   63 3583.62999 3120.75752  12.9%     -    0s
     0     0 3126.87276    0   62 3583.62999 3126.87276  12.7%     -    0s
     0     0 3126.87587    0   63 3583.62999 3126.87587  12.7%     -    0s
H    0     0                    3525.9099836 3126.87587  11.3%     -    0s
     0     0 3150.72560    0   73 3525.90998 3150.72560  10.6%     -    0s
     0     0 3152.19542    0   76 3525.90998 3152.19542  10.6%     -    0s
     0     0 3152.21300    0   76 3525.90998 3152.21300  10.6%     -    0s
     0     0 3155.53276    0   77 3525.90998 3155.53276  10.5%     -    0s
H    0     0                    3512.6200008 3155.53276  10.2%     -    0s
     0     0 3155.53276    0   77 3512.62000 3155.53276  10.2%     -    0s
     0     2 3155.53276    0   77 3512.62000 3155.53276  10.2%     -    0s
H   33    32                    3503.2700015 3162.34148  9.73%  16.5    0s
H 2838  2428                    3501.1100025 3214.09068  8.20%   8.0    3s
H 2847  2311                    3477.6499935 3215.23798  7.55%   7.9    4s
H 2849  2198                    3396.6599912 3215.24771  5.34%   9.2    5s
H 2850  2088                    3379.5799912 3215.24771  4.86%   9.2    5s
H 4316  2710                    3356.4599902 3220.80056  4.04%  22.0    9s
H 4320  2611                    3355.5599908 3220.80056  4.02%  22.1    9s
  4907  2918     cutoff   81      3355.55999 3220.80056  4.02%  22.8   10s
H 6646  3468                    3345.3599904 3220.80056  3.72%  25.7   12s
  9596  5019 3290.88135  188   92 3345.35999 3222.93735  3.66%  30.8   15s
 14875  9079 3311.25567  122  117 3345.35999 3230.61261  3.43%  30.1   20s
H14882  8629                    3345.3599887 3230.61261  3.43%  30.1   20s
 14910  8650 3230.65079   21  118 3345.35999 3230.65079  3.43%  30.3   25s
 17258  9482     cutoff   70      3345.35999 3235.45233  3.29%  30.6   30s
H20174  9077                    3316.0799904 3235.45233  2.43%  31.0   33s
 21677  9568 3253.20824   53  100 3316.07999 3237.39259  2.37%  31.2   35s
 26730 11587 3264.23197   48  114 3316.07999 3245.18946  2.14%  32.7   40s
 29467 12977 3266.16525   90   77 3316.07999 3247.68396  2.06%  32.9   47s
 29510 13006 3264.92245   53  150 3316.07999 3254.83865  1.85%  32.8   50s

Gurobi 8.1.1 (linux64) logging started Mon Oct 14 18:46:43 2019

Academic license - for non-commercial use only

Gurobi Optimizer version 8.1.1 build v8.1.1rc0 (linux64)
Copyright (c) 2019, Gurobi Optimization, LLC

Read MPS format model from file binkar10_1.mps
Reading time = 0.00 seconds
binkar10_1: 1026 rows, 2298 columns, 4496 nonzeros
Optimize a model with 1026 rows, 2298 columns and 4496 nonzeros
Variable types: 2128 continuous, 170 integer (0 binary)
Coefficient statistics:
  Matrix range     [1e+00, 3e+01]
  Objective range  [8e-01, 1e+06]
  Bounds range     [1e+00, 1e+00]
  RHS range        [1e+00, 8e+01]
Presolve removed 216 rows and 909 columns
Presolve time: 0.01s
Presolved: 810 rows, 1389 columns, 3332 nonzeros
Variable types: 1219 continuous, 170 integer (170 binary)
Found heuristic solution: objective 10805.870082
Found heuristic solution: objective 9844.2800390

Root relaxation: objective 6.637188e+03, 455 iterations, 0.00 seconds

    Nodes    |    Current Node    |     Objective Bounds      |     Work
 Expl Unexpl |  Obj  Depth IntInf | Incumbent    BestBd   Gap | It/Node Time

     0     0 6637.18803    0   38 9844.28004 6637.18803  32.6%     -    0s
H    0     0                    7000.8500170 6637.18803  5.19%     -    0s
H    0     0                    6933.4300070 6637.18803  4.27%     -    0s
H    0     0                    6917.7300100 6637.18803  4.06%     -    0s
     0     0 6645.75500    0   52 6917.73001 6645.75500  3.93%     -    0s
     0     0 6674.93019    0   58 6917.73001 6674.93019  3.51%     -    0s
H    0     0                    6835.0700120 6674.93019  2.34%     -    0s
H    0     0                    6766.4400160 6674.93019  1.35%     -    0s
     0     0 6676.37061    0   59 6766.44002 6676.37061  1.33%     -    0s
     0     0 6676.99326    0   55 6766.44002 6676.99326  1.32%     -    0s
     0     0 6676.99923    0   59 6766.44002 6676.99923  1.32%     -    0s
     0     0 6677.06721    0   62 6766.44002 6677.06721  1.32%     -    0s
     0     0 6680.63686    0   59 6766.44002 6680.63686  1.27%     -    0s
     0     0 6684.92239    0   71 6766.44002 6684.92239  1.20%     -    0s
     0     0 6697.83829    0   56 6766.44002 6697.83829  1.01%     -    0s
     0     0 6699.27064    0   56 6766.44002 6699.27064  0.99%     -    0s
     0     0 6699.35276    0   51 6766.44002 6699.35276  0.99%     -    0s
     0     0 6699.61691    0   51 6766.44002 6699.61691  0.99%     -    0s
     0     0 6699.83130    0   52 6766.44002 6699.83130  0.98%     -    0s
     0     0 6699.83732    0   54 6766.44002 6699.83732  0.98%     -    0s
     0     0 6701.57317    0   63 6766.44002 6701.57317  0.96%     -    0s
     0     0 6702.53390    0   69 6766.44002 6702.53390  0.94%     -    0s
     0     0 6702.93372    0   64 6766.44002 6702.93372  0.94%     -    0s
     0     0 6703.08793    0   76 6766.44002 6703.08793  0.94%     -    0s
     0     0 6703.14047    0   87 6766.44002 6703.14047  0.94%     -    0s
     0     0 6705.66334    0   84 6766.44002 6705.66334  0.90%     -    0s
     0     0 6706.53391    0   90 6766.44002 6706.53391  0.89%     -    0s
     0     0 6706.73585    0   88 6766.44002 6706.73585  0.88%     -    0s
     0     0 6707.36686    0   78 6766.44002 6707.36686  0.87%     -    0s
     0     0 6707.40929    0   74 6766.44002 6707.40929  0.87%     -    0s
     0     0 6707.41483    0   79 6766.44002 6707.41483  0.87%     -    0s
     0     0 6710.46191    0   75 6766.44002 6710.46191  0.83%     -    0s
     0     0 6710.91750    0   74 6766.44002 6710.91750  0.82%     -    0s
     0     0 6711.00279    0   76 6766.44002 6711.00279  0.82%     -    0s
     0     0 6711.01700    0   77 6766.44002 6711.01700  0.82%     -    0s
     0     0 6712.80993    0   74 6766.44002 6712.80993  0.79%     -    0s
     0     0 6713.16648    0   85 6766.44002 6713.16648  0.79%     -    0s
     0     0 6713.28241    0   78 6766.44002 6713.28241  0.79%     -    0s
     0     0 6713.62328    0   85 6766.44002 6713.62328  0.78%     -    0s
     0     0 6713.93130    0   77 6766.44002 6713.93130  0.78%     -    0s
     0     0 6714.00963    0   79 6766.44002 6714.00963  0.77%     -    0s
     0     0 6714.02719    0   77 6766.44002 6714.02719  0.77%     -    0s
     0     0 6714.39622    0   77 6766.44002 6714.39622  0.77%     -    0s
     0     0 6714.66348    0   74 6766.44002 6714.66348  0.77%     -    0s
     0     0 6714.77820    0   70 6766.44002 6714.77820  0.76%     -    0s
     0     0 6714.89135    0   86 6766.44002 6714.89135  0.76%     -    0s
     0     0 6715.00998    0   82 6766.44002 6715.00998  0.76%     -    0s
     0     0 6715.01329    0   85 6766.44002 6715.01329  0.76%     -    0s
     0     0 6715.16109    0   78 6766.44002 6715.16109  0.76%     -    0s
     0     0 6715.37730    0   82 6766.44002 6715.37730  0.75%     -    0s
     0     0 6715.38424    0   82 6766.44002 6715.38424  0.75%     -    0s
     0     0 6715.59638    0   70 6766.44002 6715.59638  0.75%     -    0s
     0     0 6715.66022    0   81 6766.44002 6715.66022  0.75%     -    0s
     0     0 6716.53736    0   77 6766.44002 6716.53736  0.74%     -    0s
     0     0 6716.64189    0   81 6766.44002 6716.64189  0.74%     -    0s
     0     0 6716.73856    0   78 6766.44002 6716.73856  0.73%     -    0s
     0     0 6716.74811    0   77 6766.44002 6716.74811  0.73%     -    0s
     0     0 6716.88625    0   83 6766.44002 6716.88625  0.73%     -    0s
     0     0 6716.92945    0   82 6766.44002 6716.92945  0.73%     -    0s
     0     0 6716.93051    0   82 6766.44002 6716.93051  0.73%     -    0s
H    0     0                    6759.9400200 6716.93051  0.64%     -    0s
     0     0 6717.10627    0   73 6759.94002 6717.10627  0.63%     -    0s
     0     0 6717.11868    0   73 6759.94002 6717.11868  0.63%     -    0s
H    0     0                    6751.2900210 6717.11868  0.51%     -    0s
     0     0 6717.17617    0   81 6751.29002 6717.17617  0.51%     -    0s
     0     0 6717.17617    0   81 6751.29002 6717.17617  0.51%     -    0s
     0     0 6717.17617    0   38 6751.29002 6717.17617  0.51%     -    0s
     0     0 6717.17617    0   61 6751.29002 6717.17617  0.51%     -    0s
     0     0 6717.17617    0   54 6751.29002 6717.17617  0.51%     -    0s
     0     0 6717.17617    0   69 6751.29002 6717.17617  0.51%     -    0s
     0     0 6717.17617    0   58 6751.29002 6717.17617  0.51%     -    0s
     0     0 6717.17617    0   71 6751.29002 6717.17617  0.51%     -    0s
     0     0 6717.17617    0   72 6751.29002 6717.17617  0.51%     -    0s
     0     0 6717.17617    0   64 6751.29002 6717.17617  0.51%     -    0s
     0     0 6717.17617    0   80 6751.29002 6717.17617  0.51%     -    0s
     0     0 6717.17617    0   78 6751.29002 6717.17617  0.51%     -    0s
     0     0 6717.17617    0   78 6751.29002 6717.17617  0.51%     -    0s
     0     0 6717.17617    0   78 6751.29002 6717.17617  0.51%     -    0s
     0     2 6717.17617    0   78 6751.29002 6717.17617  0.51%     -    0s
H  914   534                    6749.2900150 6723.58587  0.38%  17.1    0s
* 1472   706              30    6748.1500090 6723.82878  0.36%  18.0    1s
* 1478   665              31    6746.6100120 6723.82878  0.34%  18.0    1s
H 1622   664                    6746.3800170 6723.82878  0.33%  18.1    2s
* 3477   844              29    6745.5700140 6730.34539  0.23%  17.9    2s
H 4955   921                    6742.8000180 6732.82558  0.15%  18.1    3s
H 6642   757                    6742.2000240 6735.95248  0.09%  18.2    3s

Cutting planes:
  Gomory: 4
  Cover: 23
  MIR: 49
  StrongCG: 15
  Flow cover: 4
  GUB cover: 1
  Zero half: 1

Explored 8038 nodes (145737 simplex iterations) in 4.24 seconds
Thread count was 8 (of 8 available processors)

Solution count 10: 6742.2 6742.8 6745.57 ... 6766.44

Optimal solution found (tolerance 1.00e-04)
Best objective 6.742200024000e+03, best bound 6.741628211820e+03, gap 0.0085%

Gurobi 8.1.1 (linux64) logging started Sun Dec  1 11:40:17 2019

Academic license - for non-commercial use only

Gurobi Optimizer version 8.1.1 build v8.1.1rc0 (linux64)
Copyright (c) 2019, Gurobi Optimization, LLC

Read MPS format model from file mzzv42z.mps
Reading time = 0.05 seconds
mzzv42z: 10460 rows, 11717 columns, 151261 nonzeros
Optimize a model with 10460 rows, 11717 columns and 151261 nonzeros
Variable types: 0 continuous, 11717 integer (0 binary)
Coefficient statistics:
  Matrix range     [1e+00, 1e+03]
  Objective range  [8e+00, 1e+03]
  Bounds range     [1e+00, 1e+02]
  RHS range        [1e+00, 1e+00]
Found heuristic solution: objective 0.0000000
Presolve removed 345 rows and 490 columns
Presolve time: 0.64s
Presolved: 10115 rows, 11227 columns, 145517 nonzeros
Variable types: 0 continuous, 11227 integer (10992 binary)

Deterministic concurrent LP optimizer: primal and dual simplex
Showing first log only...

Concurrent spin time: 0.00s

Solved with primal simplex

Root relaxation: objective -2.143170e+04, 5164 iterations, 0.29 seconds

    Nodes    |    Current Node    |     Objective Bounds      |     Work
 Expl Unexpl |  Obj  Depth IntInf | Incumbent    BestBd   Gap | It/Node Time

     0     0 -21431.699    0  478    0.00000 -21431.699      -     -    1s
H    0     0                    -9970.000000 -21431.699   115%     -    1s
H    0     0                    -10080.00000 -21431.699   113%     -    1s
H    0     0                    -12070.00000 -21431.699  77.6%     -    1s
H    0     0                    -12660.00000 -21431.699  69.3%     -    1s
H    0     0                    -15710.00000 -21431.699  36.4%     -    1s
     0     0 -20962.427    0  608 -15710.000 -20962.427  33.4%     -    1s
H    0     0                    -17918.00000 -20962.427  17.0%     -    1s
H    0     0                    -19870.00000 -20962.427  5.50%     -    1s
     0     0 -20921.633    0  508 -19870.000 -20921.633  5.29%     -    1s
     0     0 -20920.979    0  519 -19870.000 -20920.979  5.29%     -    1s
     0     0 -20542.712    0  137 -19870.000 -20542.712  3.39%     -    2s
H    0     0                    -20400.00000 -20542.712  0.70%     -    2s
H    0     0                    -20520.00000 -20542.712  0.11%     -    2s
     0     0 -20540.000    0    6 -20520.000 -20540.000  0.10%     -    2s
     0     0 -20540.000    0    4 -20520.000 -20540.000  0.10%     -    2s
H    0     0                    -20540.00000 -20540.000  0.00%     -    2s

Explored 1 nodes (10721 simplex iterations) in 2.71 seconds
Thread count was 8 (of 8 available processors)

Solution count 10: -20540 -20520 -20400 ... -9970

Optimal solution found (tolerance 1.00e-04)
Best objective -2.054000000000e+04, best bound -2.054000000000e+04, gap 0.0000%

Gurobi 8.1.1 (linux64) logging started Sun Dec  1 11:40:32 2019

Academic license - for non-commercial use only

Gurobi 8.1.1 (linux64) logging started Sun Dec  1 11:42:32 2019

Academic license - for non-commercial use only

Gurobi Optimizer version 8.1.1 build v8.1.1rc0 (linux64)
Copyright (c) 2019, Gurobi Optimization, LLC

Read MPS format model from file mzzv42z.mps
Reading time = 0.04 seconds
mzzv42z: 10460 rows, 11717 columns, 151261 nonzeros
Optimize a model with 10460 rows, 11717 columns and 151261 nonzeros
Variable types: 0 continuous, 11717 integer (0 binary)
Coefficient statistics:
  Matrix range     [1e+00, 1e+03]
  Objective range  [8e+00, 1e+03]
  Bounds range     [1e+00, 1e+02]
  RHS range        [1e+00, 1e+00]
Found heuristic solution: objective 0.0000000
Presolve removed 345 rows and 490 columns
Presolve time: 0.63s
Presolved: 10115 rows, 11227 columns, 145517 nonzeros
Variable types: 0 continuous, 11227 integer (10992 binary)

Deterministic concurrent LP optimizer: primal and dual simplex
Showing first log only...

Concurrent spin time: 0.00s

Solved with primal simplex

Root relaxation: objective -2.143170e+04, 5164 iterations, 0.28 seconds

    Nodes    |    Current Node    |     Objective Bounds      |     Work
 Expl Unexpl |  Obj  Depth IntInf | Incumbent    BestBd   Gap | It/Node Time

     0     0 -21431.699    0  478    0.00000 -21431.699      -     -    1s
H    0     0                    -9970.000000 -21431.699   115%     -    1s
H    0     0                    -10080.00000 -21431.699   113%     -    1s
H    0     0                    -12070.00000 -21431.699  77.6%     -    1s
H    0     0                    -12660.00000 -21431.699  69.3%     -    1s
H    0     0                    -15710.00000 -21431.699  36.4%     -    1s
     0     0 -20962.427    0  608 -15710.000 -20962.427  33.4%     -    1s
H    0     0                    -17918.00000 -20962.427  17.0%     -    1s
H    0     0                    -19870.00000 -20962.427  5.50%     -    1s
     0     0 -20921.633    0  508 -19870.000 -20921.633  5.29%     -    1s
     0     0 -20920.979    0  519 -19870.000 -20920.979  5.29%     -    1s
     0     0 -20542.712    0  137 -19870.000 -20542.712  3.39%     -    2s
H    0     0                    -20400.00000 -20542.712  0.70%     -    2s
H    0     0                    -20520.00000 -20542.712  0.11%     -    2s
     0     0 -20540.000    0    6 -20520.000 -20540.000  0.10%     -    2s
     0     0 -20540.000    0    4 -20520.000 -20540.000  0.10%     -    2s
H    0     0                    -20540.00000 -20540.000  0.00%     -    2s

Explored 1 nodes (10721 simplex iterations) in 2.67 seconds
Thread count was 8 (of 8 available processors)

Solution count 10: -20540 -20520 -20400 ... -9970

Optimal solution found (tolerance 1.00e-04)
Best objective -2.054000000000e+04, best bound -2.054000000000e+04, gap 0.0000%

Gurobi 8.1.1 (linux64) logging started Sun Dec  1 11:45:22 2019

Academic license - for non-commercial use only
Unknown parameter: '[method'

Gurobi Optimizer version 8.1.1 build v8.1.1rc0 (linux64)
Copyright (c) 2019, Gurobi Optimization, LLC

Read MPS format model from file mzzv42z.mps
Reading time = 0.04 seconds
mzzv42z: 10460 rows, 11717 columns, 151261 nonzeros
Optimize a model with 10460 rows, 11717 columns and 151261 nonzeros
Variable types: 0 continuous, 11717 integer (0 binary)
Coefficient statistics:
  Matrix range     [1e+00, 1e+03]
  Objective range  [8e+00, 1e+03]
  Bounds range     [1e+00, 1e+02]
  RHS range        [1e+00, 1e+00]
Found heuristic solution: objective 0.0000000
Presolve removed 345 rows and 490 columns
Presolve time: 0.65s
Presolved: 10115 rows, 11227 columns, 145517 nonzeros
Variable types: 0 continuous, 11227 integer (10992 binary)

Deterministic concurrent LP optimizer: primal and dual simplex
Showing first log only...

Concurrent spin time: 0.00s

Solved with primal simplex

Root relaxation: objective -2.143170e+04, 5164 iterations, 0.29 seconds

    Nodes    |    Current Node    |     Objective Bounds      |     Work
 Expl Unexpl |  Obj  Depth IntInf | Incumbent    BestBd   Gap | It/Node Time

     0     0 -21431.699    0  478    0.00000 -21431.699      -     -    1s
H    0     0                    -9970.000000 -21431.699   115%     -    1s
H    0     0                    -10080.00000 -21431.699   113%     -    1s
H    0     0                    -12070.00000 -21431.699  77.6%     -    1s
H    0     0                    -12660.00000 -21431.699  69.3%     -    1s
H    0     0                    -15710.00000 -21431.699  36.4%     -    1s
     0     0 -20962.427    0  608 -15710.000 -20962.427  33.4%     -    1s
H    0     0                    -17918.00000 -20962.427  17.0%     -    1s
H    0     0                    -19870.00000 -20962.427  5.50%     -    1s
     0     0 -20921.633    0  508 -19870.000 -20921.633  5.29%     -    1s
     0     0 -20920.979    0  519 -19870.000 -20920.979  5.29%     -    1s
     0     0 -20542.712    0  137 -19870.000 -20542.712  3.39%     -    2s
H    0     0                    -20400.00000 -20542.712  0.70%     -    2s
H    0     0                    -20520.00000 -20542.712  0.11%     -    2s
     0     0 -20540.000    0    6 -20520.000 -20540.000  0.10%     -    2s
     0     0 -20540.000    0    4 -20520.000 -20540.000  0.10%     -    2s
H    0     0                    -20540.00000 -20540.000  0.00%     -    2s

Explored 1 nodes (10721 simplex iterations) in 2.60 seconds
Thread count was 8 (of 8 available processors)

Solution count 10: -20540 -20520 -20400 ... -9970

Optimal solution found (tolerance 1.00e-04)
Best objective -2.054000000000e+04, best bound -2.054000000000e+04, gap 0.0000%

Gurobi 8.1.1 (linux64) logging started Sun Dec  1 11:58:38 2019

Academic license - for non-commercial use only

Gurobi Optimizer version 8.1.1 build v8.1.1rc0 (linux64)
Copyright (c) 2019, Gurobi Optimization, LLC

Read MPS format model from file net12.mps
Reading time = 0.03 seconds
net12: 14021 rows, 14115 columns, 80384 nonzeros
Optimize a model with 14021 rows, 14115 columns and 80384 nonzeros
Variable types: 12512 continuous, 1603 integer (0 binary)
Coefficient statistics:
  Matrix range     [1e+00, 1e+01]
  Objective range  [1e+00, 2e+01]
  Bounds range     [1e+00, 3e+00]
  RHS range        [1e+00, 3e+00]
Presolve removed 3165 rows and 3495 columns
Presolve time: 0.32s
Presolved: 10856 rows, 10620 columns, 56999 nonzeros
Variable types: 9507 continuous, 1113 integer (1113 binary)

Root relaxation: objective 7.064054e+01, 2941 iterations, 0.29 seconds

    Nodes    |    Current Node    |     Objective Bounds      |     Work
 Expl Unexpl |  Obj  Depth IntInf | Incumbent    BestBd   Gap | It/Node Time

     0     0   70.64054    0  339          -   70.64054      -     -    0s
     0     0   81.30256    0  450          -   81.30256      -     -    1s
H    0     0                     337.0000000   81.30256  75.9%     -    1s
     0     0   81.59485    0  437  337.00000   81.59485  75.8%     -    1s
     0     0   85.21755    0  469  337.00000   85.21755  74.7%     -    1s
     0     0   85.68425    0  458  337.00000   85.68425  74.6%     -    1s
     0     0   85.81357    0  458  337.00000   85.81357  74.5%     -    1s
     0     0   85.81812    0  460  337.00000   85.81812  74.5%     -    1s
     0     0   85.82161    0  454  337.00000   85.82161  74.5%     -    1s
     0     0   85.82248    0  459  337.00000   85.82248  74.5%     -    1s
     0     0   87.03023    0  480  337.00000   87.03023  74.2%     -    2s
     0     0   87.14100    0  462  337.00000   87.14100  74.1%     -    2s
     0     0   87.14457    0  462  337.00000   87.14457  74.1%     -    2s
     0     0   87.18116    0  473  337.00000   87.18116  74.1%     -    2s
     0     0   87.22404    0  467  337.00000   87.22404  74.1%     -    2s
     0     0   87.22474    0  469  337.00000   87.22474  74.1%     -    2s
     0     0   87.36164    0  491  337.00000   87.36164  74.1%     -    2s
     0     0   87.63019    0  473  337.00000   87.63019  74.0%     -    2s
     0     0   87.68510    0  476  337.00000   87.68510  74.0%     -    2s
     0     0   87.73215    0  479  337.00000   87.73215  74.0%     -    2s
     0     0   87.74721    0  486  337.00000   87.74721  74.0%     -    2s
     0     0   87.74721    0  484  337.00000   87.74721  74.0%     -    2s
     0     0   87.81956    0  495  337.00000   87.81956  73.9%     -    2s
     0     0   87.83483    0  480  337.00000   87.83483  73.9%     -    2s
     0     0   87.83483    0  480  337.00000   87.83483  73.9%     -    2s
     0     0   88.07364    0  472  337.00000   88.07364  73.9%     -    3s
     0     0   88.12761    0  471  337.00000   88.12761  73.8%     -    3s
     0     0   88.14014    0  475  337.00000   88.14014  73.8%     -    3s
     0     0   88.14014    0  475  337.00000   88.14014  73.8%     -    3s
     0     0   88.70524    0  468  337.00000   88.70524  73.7%     -    3s
     0     0   88.71424    0  480  337.00000   88.71424  73.7%     -    3s
     0     0   88.71951    0  478  337.00000   88.71951  73.7%     -    3s
     0     0   88.71962    0  480  337.00000   88.71962  73.7%     -    3s
     0     0   88.73581    0  479  337.00000   88.73581  73.7%     -    3s
     0     0   88.76632    0  467  337.00000   88.76632  73.7%     -    3s
     0     0   88.77412    0  472  337.00000   88.77412  73.7%     -    3s
     0     0   88.77705    0  476  337.00000   88.77705  73.7%     -    3s
     0     0   88.79617    0  471  337.00000   88.79617  73.7%     -    3s
     0     0   88.80352    0  485  337.00000   88.80352  73.6%     -    3s
     0     0   88.80641    0  480  337.00000   88.80641  73.6%     -    3s
     0     0   89.10590    0  458  337.00000   89.10590  73.6%     -    4s
     0     0   89.16073    0  465  337.00000   89.16073  73.5%     -    4s
     0     0   89.17336    0  465  337.00000   89.17336  73.5%     -    4s
     0     0   89.17365    0  469  337.00000   89.17365  73.5%     -    4s
     0     0   89.45385    0  464  337.00000   89.45385  73.5%     -    4s
     0     0   89.45641    0  473  337.00000   89.45641  73.5%     -    4s
     0     0   89.95183    0  461  337.00000   89.95183  73.3%     -    4s
     0     0   90.09053    0  466  337.00000   90.09053  73.3%     -    4s
     0     0   90.09053    0  472  337.00000   90.09053  73.3%     -    4s
     0     0   90.55457    0  464  337.00000   90.55457  73.1%     -    4s
     0     0   90.56589    0  469  337.00000   90.56589  73.1%     -    4s
     0     0   90.56804    0  474  337.00000   90.56804  73.1%     -    4s
     0     0   90.85506    0  484  337.00000   90.85506  73.0%     -    5s
     0     0   90.89745    0  471  337.00000   90.89745  73.0%     -    5s
     0     0   90.90662    0  479  337.00000   90.90662  73.0%     -    5s
     0     0   90.90676    0  479  337.00000   90.90676  73.0%     -    5s
     0     0   90.95030    0  477  337.00000   90.95030  73.0%     -    5s
     0     0   90.96914    0  475  337.00000   90.96914  73.0%     -    5s
     0     0   90.96928    0  475  337.00000   90.96928  73.0%     -    5s
     0     0   90.97274    0  473  337.00000   90.97274  73.0%     -    5s
     0     0   90.97303    0  474  337.00000   90.97303  73.0%     -    5s
     0     0   91.05972    0  458  337.00000   91.05972  73.0%     -    6s
     0     0   91.18556    0  498  337.00000   91.18556  72.9%     -    6s
     0     0   91.21720    0  499  337.00000   91.21720  72.9%     -    6s
     0     0   91.21728    0  498  337.00000   91.21728  72.9%     -    6s
     0     0   91.25192    0  481  337.00000   91.25192  72.9%     -    6s
     0     0   91.25192    0  485  337.00000   91.25192  72.9%     -    6s
     0     0   91.25192    0  489  337.00000   91.25192  72.9%     -    6s
     0     0   91.25192    0  490  337.00000   91.25192  72.9%     -    6s
     0     0   91.25192    0  461  337.00000   91.25192  72.9%     -    7s
     0     0   91.25192    0  454  337.00000   91.25192  72.9%     -    7s
     0     2   91.25192    0  441  337.00000   91.25192  72.9%     -    7s
    15    18 infeasible    4       337.00000  108.72360  67.7%  2013   10s
